unsat
(error "line 115 column 10: model is not available")
(:max-memory          21.69
 :memory              20.81
 :num-allocs          1681691
 :rlimit-count        78609
 :solve-eqs-elim-vars 445
 :solve-eqs-steps     612
 :time                0.04
 :total-time          0.10)
